10
13
0 1 80 2.78
0 2 30 0.64
0 3 1 10
0 4 35 0.6
0 5 1 11
0 6 33 0.45
0 7 1 12
0 8 37 0.66
0 9 2 19
1 2 2 20
1 3 25 0.65
1 4 1 29
1 5 26 0.64
1 6 3 34
1 7 27 0.63
1 8 2 30
1 9 26 0.62
2 3 60 2.78
2 4 25 0.6
2 5 3 10
2 6 26 0.59
2 7 2 25
2 8 29 0.61
2 9 1 30
3 4 1 25
3 5 25 0.65
3 6 1 27
3 7 25 0.64
3 8 1 20
3 9 28 0.62
4 5 75 2.78
4 6 30 0.63
4 7 1 10
4 8 26 0.64
4 9 1 15
5 6 2 19
5 7 28 0.63
5 8 1 20
5 9 25 0.61
6 7 70 2.78
6 8 28 0.68
6 9 1 25
7 8 1 16
7 9 25 0.62
8 9 60 2.78
